NAME          ClpDefau
ROWS
 N  OBJROW
 L  R_68_0
 L  R_68_1
 L  R_68_2
 L  R_68_3
 L  R_68_4
 L  R_68_5
 L  R_68_6
 L  R_68_7
COLUMNS
    x_0       OBJROW     -1.           R_68_1    88.         
    x_0       R_68_2    56.         
    x_1       OBJROW     -2.        
    x_2       OBJROW     -2.           R_68_1    23.         
    x_2       R_68_3    42.            R_68_4    66.         
    x_3       OBJROW     -6.           R_68_0    58.         
    x_4       OBJROW     -3.           R_68_1    97.         
    x_5       OBJROW     -5.        
    x_6       OBJROW     -5.        
    x_7       OBJROW     -10.       
RHS
    RHS       R_68_0    103.           R_68_1    86.         
    RHS       R_68_2    95.            R_68_3    96.         
    RHS       R_68_4    91.            R_68_5    101.        
    RHS       R_68_6    99.            R_68_7    82.         
BOUNDS
 UI BOUND     x_0       10.         
 UI BOUND     x_1       10.         
 UI BOUND     x_2       10.         
 UI BOUND     x_3       10.         
 UI BOUND     x_4       10.         
 UI BOUND     x_5       10.         
 UI BOUND     x_6       10.         
 UI BOUND     x_7       10.         
ENDATA
